(set-logic QF_NIA)
(set-info :source |
     Constraint systems stating that a matrix interpretation is
     compatible with a rewriting system (weakly compatible with
     all rules, strictly compatible with at least one).

     Contributed by Johannes Waldmann at HTKW Leipzig.
   |)
(set-info :smt-lib-version 2.0)
(set-info :category "crafted")
(set-info :status sat)
(declare-fun n0 () Int)
(assert (>= n0 0))
(declare-fun n1 () Int)
(assert (>= n1 0))
(declare-fun n2 () Int)
(assert (>= n2 0))
(declare-fun n3 () Int)
(assert (>= n3 0))
(declare-fun n4 () Int)
(assert (>= n4 0))
(declare-fun n5 () Int)
(assert (>= n5 0))
(declare-fun n6 () Int)
(assert (>= n6 0))
(declare-fun n7 () Int)
(assert (>= n7 0))
(declare-fun n8 () Int)
(assert (= n8 (* n5 n4)))
(declare-fun n9 () Int)
(assert (= n9 (+ n4 n8)))
(declare-fun n10 () Int)
(assert (= n10 (* n5 n5)))
(declare-fun n11 () Int)
(assert (= n11 (* n7 n9)))
(declare-fun n12 () Int)
(assert (= n12 (+ n6 n11)))
(declare-fun n13 () Int)
(assert (= n13 (* n7 n10)))
(declare-fun n14 () Int)
(assert (= n14 (* n7 n6)))
(declare-fun n15 () Int)
(assert (= n15 (+ n6 n14)))
(declare-fun n16 () Int)
(assert (= n16 (* n7 n7)))
(declare-fun n17 () Int)
(assert (= n17 (* n13 n6)))
(declare-fun n18 () Int)
(assert (= n18 (+ n12 n17)))
(declare-fun n19 () Int)
(assert (= n19 (* n13 n7)))
(declare-fun n20 () Int)
(assert (= n20 (* n5 n18)))
(declare-fun n21 () Int)
(assert (= n21 (+ n4 n20)))
(declare-fun n22 () Int)
(assert (= n22 (* n5 n19)))
(declare-fun n23 () Int)
(assert (= n23 (* n5 n15)))
(declare-fun n24 () Int)
(assert (= n24 (+ n4 n23)))
(declare-fun n25 () Int)
(assert (= n25 (* n5 n16)))
(declare-fun n26 () Int)
(assert (= n26 (* n3 n9)))
(declare-fun n27 () Int)
(assert (= n27 (+ n2 n26)))
(declare-fun n28 () Int)
(assert (= n28 (* n3 n10)))
(declare-fun n29 () Int)
(assert (= n29 (* n5 n6)))
(declare-fun n30 () Int)
(assert (= n30 (+ n4 n29)))
(declare-fun n31 () Int)
(assert (= n31 (* n5 n7)))
(declare-fun n32 () Int)
(assert (= n32 (* n28 n21)))
(declare-fun n33 () Int)
(assert (= n33 (+ n27 n32)))
(declare-fun n34 () Int)
(assert (= n34 (* n28 n22)))
(declare-fun n35 () Int)
(assert (= n35 (* n3 n6)))
(declare-fun n36 () Int)
(assert (= n36 (+ n2 n35)))
(declare-fun n37 () Int)
(assert (= n37 (* n3 n7)))
(declare-fun n38 () Int)
(assert (= n38 (* n37 n30)))
(declare-fun n39 () Int)
(assert (= n39 (+ n36 n38)))
(declare-fun n40 () Int)
(assert (= n40 (* n37 n31)))
(assert (>= n39 n36))
(assert (>= n40 n37))
(declare-fun n41 () Int)
(assert (= n41 (* n28 n24)))
(declare-fun n42 () Int)
(assert (= n42 (+ n27 n41)))
(declare-fun n43 () Int)
(assert (= n43 (* n28 n25)))
(assert (>= n33 n42))
(assert (>= n34 n43))
(assert (>= n33 n36))
(assert (>= n34 n37))
(declare-fun n44 () Int)
(assert (= n44 (* n7 n21)))
(declare-fun n45 () Int)
(assert (= n45 (+ n6 n44)))
(declare-fun n46 () Int)
(assert (= n46 (* n7 n22)))
(assert (>= n15 n45))
(assert (>= n16 n46))
(declare-fun n47 () Int)
(assert (= n47 (* n16 n30)))
(declare-fun n48 () Int)
(assert (= n48 (+ n15 n47)))
(declare-fun n49 () Int)
(assert (= n49 (* n16 n31)))
(declare-fun n50 () Int)
(assert (= n50 (* n7 n24)))
(declare-fun n51 () Int)
(assert (= n51 (+ n6 n50)))
(declare-fun n52 () Int)
(assert (= n52 (* n7 n25)))
(assert (>= n48 n51))
(assert (>= n49 n52))
(declare-fun n53 () Int)
(assert (= n53 (* n13 n21)))
(declare-fun n54 () Int)
(assert (= n54 (+ n12 n53)))
(declare-fun n55 () Int)
(assert (= n55 (* n13 n22)))
(declare-fun n56 () Int)
(assert (= n56 (* n13 n24)))
(declare-fun n57 () Int)
(assert (= n57 (+ n12 n56)))
(declare-fun n58 () Int)
(assert (= n58 (* n13 n25)))
(assert (>= n54 n57))
(assert (>= n55 n58))
(declare-fun n59 () Int)
(assert (= n59 (* n7 n18)))
(declare-fun n60 () Int)
(assert (= n60 (+ n6 n59)))
(declare-fun n61 () Int)
(assert (= n61 (* n7 n19)))
(declare-fun n62 () Int)
(assert (= n62 (* n13 n15)))
(declare-fun n63 () Int)
(assert (= n63 (+ n12 n62)))
(declare-fun n64 () Int)
(assert (= n64 (* n13 n16)))
(assert (>= n60 n63))
(assert (>= n61 n64))
(assert (or (> n39 n36) (> n33 n42) (> n33 n36)))
(check-sat)
(exit)
